certificates/rado_a21_c18_N91.cnf
c Rad2 upper bound instance: x1 + 21*x2 - x3 = 18, interval [1,91]
p cnf 91 460
1 4 0
-1 -4 0
1 2 25 0
-1 -2 -25 0
1 3 46 0
-1 -3 -46 0
1 4 67 0
-1 -4 -67 0
1 5 88 0
-1 -5 -88 0
1 2 5 0
-1 -2 -5 0
2 26 0
-2 -26 0
2 3 47 0
-2 -3 -47 0
2 4 68 0
-2 -4 -68 0
2 5 89 0
-2 -5 -89 0
1 3 6 0
-1 -3 -6 0
2 3 27 0
-2 -3 -27 0
3 48 0
-3 -48 0
3 4 69 0
-3 -4 -69 0
3 5 90 0
-3 -5 -90 0
1 4 7 0
-1 -4 -7 0
2 4 28 0
-2 -4 -28 0
3 4 49 0
-3 -4 -49 0
4 70 0
-4 -70 0
4 5 91 0
-4 -5 -91 0
1 5 8 0
-1 -5 -8 0
2 5 29 0
-2 -5 -29 0
3 5 50 0
-3 -5 -50 0
4 5 71 0
-4 -5 -71 0
1 6 9 0
-1 -6 -9 0
2 6 30 0
-2 -6 -30 0
3 6 51 0
-3 -6 -51 0
4 6 72 0
-4 -6 -72 0
1 7 10 0
-1 -7 -10 0
2 7 31 0
-2 -7 -31 0
3 7 52 0
-3 -7 -52 0
4 7 73 0
-4 -7 -73 0
1 8 11 0
-1 -8 -11 0
2 8 32 0
-2 -8 -32 0
3 8 53 0
-3 -8 -53 0
4 8 74 0
-4 -8 -74 0
1 9 12 0
-1 -9 -12 0
2 9 33 0
-2 -9 -33 0
3 9 54 0
-3 -9 -54 0
4 9 75 0
-4 -9 -75 0
1 10 13 0
-1 -10 -13 0
2 10 34 0
-2 -10 -34 0
3 10 55 0
-3 -10 -55 0
4 10 76 0
-4 -10 -76 0
1 11 14 0
-1 -11 -14 0
2 11 35 0
-2 -11 -35 0
3 11 56 0
-3 -11 -56 0
4 11 77 0
-4 -11 -77 0
1 12 15 0
-1 -12 -15 0
2 12 36 0
-2 -12 -36 0
3 12 57 0
-3 -12 -57 0
4 12 78 0
-4 -12 -78 0
1 13 16 0
-1 -13 -16 0
2 13 37 0
-2 -13 -37 0
3 13 58 0
-3 -13 -58 0
4 13 79 0
-4 -13 -79 0
1 14 17 0
-1 -14 -17 0
2 14 38 0
-2 -14 -38 0
3 14 59 0
-3 -14 -59 0
4 14 80 0
-4 -14 -80 0
1 15 18 0
-1 -15 -18 0
2 15 39 0
-2 -15 -39 0
3 15 60 0
-3 -15 -60 0
4 15 81 0
-4 -15 -81 0
1 16 19 0
-1 -16 -19 0
2 16 40 0
-2 -16 -40 0
3 16 61 0
-3 -16 -61 0
4 16 82 0
-4 -16 -82 0
1 17 20 0
-1 -17 -20 0
2 17 41 0
-2 -17 -41 0
3 17 62 0
-3 -17 -62 0
4 17 83 0
-4 -17 -83 0
1 18 21 0
-1 -18 -21 0
2 18 42 0
-2 -18 -42 0
3 18 63 0
-3 -18 -63 0
4 18 84 0
-4 -18 -84 0
1 19 22 0
-1 -19 -22 0
2 19 43 0
-2 -19 -43 0
3 19 64 0
-3 -19 -64 0
4 19 85 0
-4 -19 -85 0
1 20 23 0
-1 -20 -23 0
2 20 44 0
-2 -20 -44 0
3 20 65 0
-3 -20 -65 0
4 20 86 0
-4 -20 -86 0
1 21 24 0
-1 -21 -24 0
2 21 45 0
-2 -21 -45 0
3 21 66 0
-3 -21 -66 0
4 21 87 0
-4 -21 -87 0
1 22 25 0
-1 -22 -25 0
2 22 46 0
-2 -22 -46 0
3 22 67 0
-3 -22 -67 0
4 22 88 0
-4 -22 -88 0
1 23 26 0
-1 -23 -26 0
2 23 47 0
-2 -23 -47 0
3 23 68 0
-3 -23 -68 0
4 23 89 0
-4 -23 -89 0
1 24 27 0
-1 -24 -27 0
2 24 48 0
-2 -24 -48 0
3 24 69 0
-3 -24 -69 0
4 24 90 0
-4 -24 -90 0
1 25 28 0
-1 -25 -28 0
2 25 49 0
-2 -25 -49 0
3 25 70 0
-3 -25 -70 0
4 25 91 0
-4 -25 -91 0
1 26 29 0
-1 -26 -29 0
2 26 50 0
-2 -26 -50 0
3 26 71 0
-3 -26 -71 0
1 27 30 0
-1 -27 -30 0
2 27 51 0
-2 -27 -51 0
3 27 72 0
-3 -27 -72 0
1 28 31 0
-1 -28 -31 0
2 28 52 0
-2 -28 -52 0
3 28 73 0
-3 -28 -73 0
1 29 32 0
-1 -29 -32 0
2 29 53 0
-2 -29 -53 0
3 29 74 0
-3 -29 -74 0
1 30 33 0
-1 -30 -33 0
2 30 54 0
-2 -30 -54 0
3 30 75 0
-3 -30 -75 0
1 31 34 0
-1 -31 -34 0
2 31 55 0
-2 -31 -55 0
3 31 76 0
-3 -31 -76 0
1 32 35 0
-1 -32 -35 0
2 32 56 0
-2 -32 -56 0
3 32 77 0
-3 -32 -77 0
1 33 36 0
-1 -33 -36 0
2 33 57 0
-2 -33 -57 0
3 33 78 0
-3 -33 -78 0
1 34 37 0
-1 -34 -37 0
2 34 58 0
-2 -34 -58 0
3 34 79 0
-3 -34 -79 0
1 35 38 0
-1 -35 -38 0
2 35 59 0
-2 -35 -59 0
3 35 80 0
-3 -35 -80 0
1 36 39 0
-1 -36 -39 0
2 36 60 0
-2 -36 -60 0
3 36 81 0
-3 -36 -81 0
1 37 40 0
-1 -37 -40 0
2 37 61 0
-2 -37 -61 0
3 37 82 0
-3 -37 -82 0
1 38 41 0
-1 -38 -41 0
2 38 62 0
-2 -38 -62 0
3 38 83 0
-3 -38 -83 0
1 39 42 0
-1 -39 -42 0
2 39 63 0
-2 -39 -63 0
3 39 84 0
-3 -39 -84 0
1 40 43 0
-1 -40 -43 0
2 40 64 0
-2 -40 -64 0
3 40 85 0
-3 -40 -85 0
1 41 44 0
-1 -41 -44 0
2 41 65 0
-2 -41 -65 0
3 41 86 0
-3 -41 -86 0
1 42 45 0
-1 -42 -45 0
2 42 66 0
-2 -42 -66 0
3 42 87 0
-3 -42 -87 0
1 43 46 0
-1 -43 -46 0
2 43 67 0
-2 -43 -67 0
3 43 88 0
-3 -43 -88 0
1 44 47 0
-1 -44 -47 0
2 44 68 0
-2 -44 -68 0
3 44 89 0
-3 -44 -89 0
1 45 48 0
-1 -45 -48 0
2 45 69 0
-2 -45 -69 0
3 45 90 0
-3 -45 -90 0
1 46 49 0
-1 -46 -49 0
2 46 70 0
-2 -46 -70 0
3 46 91 0
-3 -46 -91 0
1 47 50 0
-1 -47 -50 0
2 47 71 0
-2 -47 -71 0
1 48 51 0
-1 -48 -51 0
2 48 72 0
-2 -48 -72 0
1 49 52 0
-1 -49 -52 0
2 49 73 0
-2 -49 -73 0
1 50 53 0
-1 -50 -53 0
2 50 74 0
-2 -50 -74 0
1 51 54 0
-1 -51 -54 0
2 51 75 0
-2 -51 -75 0
1 52 55 0
-1 -52 -55 0
2 52 76 0
-2 -52 -76 0
1 53 56 0
-1 -53 -56 0
2 53 77 0
-2 -53 -77 0
1 54 57 0
-1 -54 -57 0
2 54 78 0
-2 -54 -78 0
1 55 58 0
-1 -55 -58 0
2 55 79 0
-2 -55 -79 0
1 56 59 0
-1 -56 -59 0
2 56 80 0
-2 -56 -80 0
1 57 60 0
-1 -57 -60 0
2 57 81 0
-2 -57 -81 0
1 58 61 0
-1 -58 -61 0
2 58 82 0
-2 -58 -82 0
1 59 62 0
-1 -59 -62 0
2 59 83 0
-2 -59 -83 0
1 60 63 0
-1 -60 -63 0
2 60 84 0
-2 -60 -84 0
1 61 64 0
-1 -61 -64 0
2 61 85 0
-2 -61 -85 0
1 62 65 0
-1 -62 -65 0
2 62 86 0
-2 -62 -86 0
1 63 66 0
-1 -63 -66 0
2 63 87 0
-2 -63 -87 0
1 64 67 0
-1 -64 -67 0
2 64 88 0
-2 -64 -88 0
1 65 68 0
-1 -65 -68 0
2 65 89 0
-2 -65 -89 0
1 66 69 0
-1 -66 -69 0
2 66 90 0
-2 -66 -90 0
1 67 70 0
-1 -67 -70 0
2 67 91 0
-2 -67 -91 0
1 68 71 0
-1 -68 -71 0
1 69 72 0
-1 -69 -72 0
1 70 73 0
-1 -70 -73 0
1 71 74 0
-1 -71 -74 0
1 72 75 0
-1 -72 -75 0
1 73 76 0
-1 -73 -76 0
1 74 77 0
-1 -74 -77 0
1 75 78 0
-1 -75 -78 0
1 76 79 0
-1 -76 -79 0
1 77 80 0
-1 -77 -80 0
1 78 81 0
-1 -78 -81 0
1 79 82 0
-1 -79 -82 0
1 80 83 0
-1 -80 -83 0
1 81 84 0
-1 -81 -84 0
1 82 85 0
-1 -82 -85 0
1 83 86 0
-1 -83 -86 0
1 84 87 0
-1 -84 -87 0
1 85 88 0
-1 -85 -88 0
1 86 89 0
-1 -86 -89 0
1 87 90 0
-1 -87 -90 0
1 88 91 0
-1 -88 -91 0
