certificates/rado_a21_c18_N91.drat
-88 -91 0
d -88 -1 -91 0
22 25 88 0
-4 -91 0
-91 0
88 0
4 0
-1 0
-70 0
-22 0
73 0
67 0
25 0
19 0
-7 0
-85 0
10 0
82 0
-76 0
-16 0
79 0
13 0
0
